c map3.map
p cnf 480 768
-3 -4 0
-3 -5 0
-4 -5 0
-1 -2 0
-2 -5 0
-1 -4 0
-5 1 0
-4 2 0
-51 -52 0
-51 -53 0
-52 -53 0
-49 -50 0
-50 -53 0
-49 -52 0
-53 49 0
-52 50 0
-99 -100 0
-99 -101 0
-100 -101 0
-97 -98 0
-98 -101 0
-97 -100 0
-101 97 0
-100 98 0
-147 -148 0
-147 -149 0
-148 -149 0
-145 -146 0
-146 -149 0
-145 -148 0
-149 145 0
-148 146 0
-195 -196 0
-195 -197 0
-196 -197 0
-193 -194 0
-194 -197 0
-193 -196 0
-197 193 0
-196 194 0
-243 -244 0
-243 -245 0
-244 -245 0
-241 -242 0
-242 -245 0
-241 -244 0
-245 241 0
-244 242 0
-291 -292 0
-291 -293 0
-292 -293 0
-289 -290 0
-290 -293 0
-289 -292 0
-293 289 0
-292 290 0
-339 -340 0
-339 -341 0
-340 -341 0
-337 -338 0
-338 -341 0
-337 -340 0
-341 337 0
-340 338 0
-387 -388 0
-387 -389 0
-388 -389 0
-385 -386 0
-386 -389 0
-385 -388 0
-389 385 0
-388 386 0
-435 -436 0
-435 -437 0
-436 -437 0
-433 -434 0
-434 -437 0
-433 -436 0
-437 433 0
-436 434 0
-9 -10 0
-9 -11 0
-10 -11 0
-7 -8 0
-8 -11 0
-7 -10 0
-11 7 0
-10 8 0
-57 -58 0
-57 -59 0
-58 -59 0
-55 -56 0
-56 -59 0
-55 -58 0
-59 55 0
-58 56 0
-105 -106 0
-105 -107 0
-106 -107 0
-103 -104 0
-104 -107 0
-103 -106 0
-107 103 0
-106 104 0
-153 -154 0
-153 -155 0
-154 -155 0
-151 -152 0
-152 -155 0
-151 -154 0
-155 151 0
-154 152 0
-201 -202 0
-201 -203 0
-202 -203 0
-199 -200 0
-200 -203 0
-199 -202 0
-203 199 0
-202 200 0
-249 -250 0
-249 -251 0
-250 -251 0
-247 -248 0
-248 -251 0
-247 -250 0
-251 247 0
-250 248 0
-297 -298 0
-297 -299 0
-298 -299 0
-295 -296 0
-296 -299 0
-295 -298 0
-299 295 0
-298 296 0
-345 -346 0
-345 -347 0
-346 -347 0
-343 -344 0
-344 -347 0
-343 -346 0
-347 343 0
-346 344 0
-393 -394 0
-393 -395 0
-394 -395 0
-391 -392 0
-392 -395 0
-391 -394 0
-395 391 0
-394 392 0
-441 -442 0
-441 -443 0
-442 -443 0
-439 -440 0
-440 -443 0
-439 -442 0
-443 439 0
-442 440 0
-15 -16 0
-15 -17 0
-16 -17 0
-13 -14 0
-14 -17 0
-13 -16 0
-17 13 0
-16 14 0
-63 -64 0
-63 -65 0
-64 -65 0
-61 -62 0
-62 -65 0
-61 -64 0
-65 61 0
-64 62 0
-111 -112 0
-111 -113 0
-112 -113 0
-109 -110 0
-110 -113 0
-109 -112 0
-113 109 0
-112 110 0
-159 -160 0
-159 -161 0
-160 -161 0
-157 -158 0
-158 -161 0
-157 -160 0
-161 157 0
-160 158 0
-207 -208 0
-207 -209 0
-208 -209 0
-205 -206 0
-206 -209 0
-205 -208 0
-209 205 0
-208 206 0
-255 -256 0
-255 -257 0
-256 -257 0
-253 -254 0
-254 -257 0
-253 -256 0
-257 253 0
-256 254 0
-303 -304 0
-303 -305 0
-304 -305 0
-301 -302 0
-302 -305 0
-301 -304 0
-305 301 0
-304 302 0
-351 -352 0
-351 -353 0
-352 -353 0
-349 -350 0
-350 -353 0
-349 -352 0
-353 349 0
-352 350 0
-399 -400 0
-399 -401 0
-400 -401 0
-397 -398 0
-398 -401 0
-397 -400 0
-401 397 0
-400 398 0
-447 -448 0
-447 -449 0
-448 -449 0
-445 -446 0
-446 -449 0
-445 -448 0
-449 445 0
-448 446 0
-21 -22 0
-21 -23 0
-22 -23 0
-19 -20 0
-20 -23 0
-19 -22 0
-23 19 0
-22 20 0
-69 -70 0
-69 -71 0
-70 -71 0
-67 -68 0
-68 -71 0
-67 -70 0
-71 67 0
-70 68 0
-117 -118 0
-117 -119 0
-118 -119 0
-115 -116 0
-116 -119 0
-115 -118 0
-119 115 0
-118 116 0
-165 -166 0
-165 -167 0
-166 -167 0
-163 -164 0
-164 -167 0
-163 -166 0
-167 163 0
-166 164 0
-213 -214 0
-213 -215 0
-214 -215 0
-211 -212 0
-212 -215 0
-211 -214 0
-215 211 0
-214 212 0
-261 -262 0
-261 -263 0
-262 -263 0
-259 -260 0
-260 -263 0
-259 -262 0
-263 259 0
-262 260 0
-309 -310 0
-309 -311 0
-310 -311 0
-307 -308 0
-308 -311 0
-307 -310 0
-311 307 0
-310 308 0
-357 -358 0
-357 -359 0
-358 -359 0
-355 -356 0
-356 -359 0
-355 -358 0
-359 355 0
-358 356 0
-405 -406 0
-405 -407 0
-406 -407 0
-403 -404 0
-404 -407 0
-403 -406 0
-407 403 0
-406 404 0
-453 -454 0
-453 -455 0
-454 -455 0
-451 -452 0
-452 -455 0
-451 -454 0
-455 451 0
-454 452 0
-27 -28 0
-27 -29 0
-28 -29 0
-25 -26 0
-26 -29 0
-25 -28 0
-29 25 0
-28 26 0
-75 -76 0
-75 -77 0
-76 -77 0
-73 -74 0
-74 -77 0
-73 -76 0
-77 73 0
-76 74 0
-123 -124 0
-123 -125 0
-124 -125 0
-121 -122 0
-122 -125 0
-121 -124 0
-125 121 0
-124 122 0
-171 -172 0
-171 -173 0
-172 -173 0
-169 -170 0
-170 -173 0
-169 -172 0
-173 169 0
-172 170 0
-219 -220 0
-219 -221 0
-220 -221 0
-217 -218 0
-218 -221 0
-217 -220 0
-221 217 0
-220 218 0
-267 -268 0
-267 -269 0
-268 -269 0
-265 -266 0
-266 -269 0
-265 -268 0
-269 265 0
-268 266 0
-315 -316 0
-315 -317 0
-316 -317 0
-313 -314 0
-314 -317 0
-313 -316 0
-317 313 0
-316 314 0
-363 -364 0
-363 -365 0
-364 -365 0
-361 -362 0
-362 -365 0
-361 -364 0
-365 361 0
-364 362 0
-411 -412 0
-411 -413 0
-412 -413 0
-409 -410 0
-410 -413 0
-409 -412 0
-413 409 0
-412 410 0
-459 -460 0
-459 -461 0
-460 -461 0
-457 -458 0
-458 -461 0
-457 -460 0
-461 457 0
-460 458 0
-33 -34 0
-33 -35 0
-34 -35 0
-31 -32 0
-32 -35 0
-31 -34 0
-35 31 0
-34 32 0
-81 -82 0
-81 -83 0
-82 -83 0
-79 -80 0
-80 -83 0
-79 -82 0
-83 79 0
-82 80 0
-129 -130 0
-129 -131 0
-130 -131 0
-127 -128 0
-128 -131 0
-127 -130 0
-131 127 0
-130 128 0
-177 -178 0
-177 -179 0
-178 -179 0
-175 -176 0
-176 -179 0
-175 -178 0
-179 175 0
-178 176 0
-225 -226 0
-225 -227 0
-226 -227 0
-223 -224 0
-224 -227 0
-223 -226 0
-227 223 0
-226 224 0
-273 -274 0
-273 -275 0
-274 -275 0
-271 -272 0
-272 -275 0
-271 -274 0
-275 271 0
-274 272 0
-321 -322 0
-321 -323 0
-322 -323 0
-319 -320 0
-320 -323 0
-319 -322 0
-323 319 0
-322 320 0
-369 -370 0
-369 -371 0
-370 -371 0
-367 -368 0
-368 -371 0
-367 -370 0
-371 367 0
-370 368 0
-417 -418 0
-417 -419 0
-418 -419 0
-415 -416 0
-416 -419 0
-415 -418 0
-419 415 0
-418 416 0
-465 -466 0
-465 -467 0
-466 -467 0
-463 -464 0
-464 -467 0
-463 -466 0
-467 463 0
-466 464 0
-39 -40 0
-39 -41 0
-40 -41 0
-37 -38 0
-38 -41 0
-37 -40 0
-41 37 0
-40 38 0
-87 -88 0
-87 -89 0
-88 -89 0
-85 -86 0
-86 -89 0
-85 -88 0
-89 85 0
-88 86 0
-135 -136 0
-135 -137 0
-136 -137 0
-133 -134 0
-134 -137 0
-133 -136 0
-137 133 0
-136 134 0
-183 -184 0
-183 -185 0
-184 -185 0
-181 -182 0
-182 -185 0
-181 -184 0
-185 181 0
-184 182 0
-231 -232 0
-231 -233 0
-232 -233 0
-229 -230 0
-230 -233 0
-229 -232 0
-233 229 0
-232 230 0
-279 -280 0
-279 -281 0
-280 -281 0
-277 -278 0
-278 -281 0
-277 -280 0
-281 277 0
-280 278 0
-327 -328 0
-327 -329 0
-328 -329 0
-325 -326 0
-326 -329 0
-325 -328 0
-329 325 0
-328 326 0
-375 -376 0
-375 -377 0
-376 -377 0
-373 -374 0
-374 -377 0
-373 -376 0
-377 373 0
-376 374 0
-423 -424 0
-423 -425 0
-424 -425 0
-421 -422 0
-422 -425 0
-421 -424 0
-425 421 0
-424 422 0
-471 -472 0
-471 -473 0
-472 -473 0
-469 -470 0
-470 -473 0
-469 -472 0
-473 469 0
-472 470 0
-45 -46 0
-45 -47 0
-46 -47 0
-43 -44 0
-44 -47 0
-43 -46 0
-47 43 0
-46 44 0
-93 -94 0
-93 -95 0
-94 -95 0
-91 -92 0
-92 -95 0
-91 -94 0
-95 91 0
-94 92 0
-141 -142 0
-141 -143 0
-142 -143 0
-139 -140 0
-140 -143 0
-139 -142 0
-143 139 0
-142 140 0
-189 -190 0
-189 -191 0
-190 -191 0
-187 -188 0
-188 -191 0
-187 -190 0
-191 187 0
-190 188 0
-237 -238 0
-237 -239 0
-238 -239 0
-235 -236 0
-236 -239 0
-235 -238 0
-239 235 0
-238 236 0
-285 -286 0
-285 -287 0
-286 -287 0
-283 -284 0
-284 -287 0
-283 -286 0
-287 283 0
-286 284 0
-333 -334 0
-333 -335 0
-334 -335 0
-331 -332 0
-332 -335 0
-331 -334 0
-335 331 0
-334 332 0
-381 -382 0
-381 -383 0
-382 -383 0
-379 -380 0
-380 -383 0
-379 -382 0
-383 379 0
-382 380 0
-429 -430 0
-429 -431 0
-430 -431 0
-427 -428 0
-428 -431 0
-427 -430 0
-431 427 0
-430 428 0
-477 -478 0
-477 -479 0
-478 -479 0
-475 -476 0
-476 -479 0
-475 -478 0
-479 475 0
-478 476 0
-471 0
-472 0
-473 0
-472 0
-473 0
-471 0
469 0
-470 0
-417 0
-465 0
-423 0
-429 0
-477 0
-418 0
-466 0
-424 0
-430 0
-478 0
-419 0
-467 0
-425 0
-431 0
-479 0
415 0
-416 0
463 0
-464 0
421 0
-422 0
427 0
-428 0
475 0
-476 0
-478 0
-479 0
-477 0
-423 0
-471 0
-429 0
-424 0
-472 0
-430 0
-425 0
-473 0
-431 0
-430 0
-431 0
-429 0
-375 0
-423 0
-471 0
-381 0
-477 0
-376 0
-424 0
-472 0
-382 0
-478 0
-377 0
-425 0
-473 0
-383 0
-479 0
373 0
-374 0
379 0
-380 0
-382 0
-383 0
-381 0
-327 0
-375 0
-423 0
-333 0
-429 0
-328 0
-376 0
-424 0
-334 0
-430 0
-329 0
-377 0
-425 0
-335 0
-431 0
325 0
-326 0
331 0
-332 0
-334 0
-335 0
-333 0
-279 0
-327 0
-375 0
-285 0
-381 0
-280 0
-328 0
-376 0
-286 0
-382 0
-281 -329 -377 0
-281 -329 -287 0
-281 -329 -383 0
-281 -377 -287 0
-281 -377 -383 0
-281 -287 -383 0
-329 -377 -287 0
-329 -377 -383 0
-329 -287 -383 0
-377 -287 -383 0
329 377 287 383 0
281 377 287 383 0
281 329 287 383 0
281 329 377 383 0
281 329 377 287 0
277 0
-278 0
283 0
-284 0
287 0
-286 0
-285 0
-287 0
-280 0
-281 0
-279 0
